\ LP format - for model browsing. Use MPS format to capture full model detail.
Maximize
  3 x_1 + 9 x_2 + x_3 + 3 x_4 + 4 x_5 + 9 x_6 + 7 x_7 + 3 x_8 + 7 x_9
   + 9 x_10
Subject To
 C_1: 9 x_1 + 6 x_2 + 4 x_3 + 6 x_4 + 2 x_5 + 5 x_6 + 10 x_7 + 6 x_8
   + 10 x_9 + 10 x_10 <= 34
 C_2: 8 x_1 + 9 x_2 + 3 x_3 + x_4 + 6 x_5 + 4 x_6 + 3 x_7 + 8 x_8 + 9 x_9
   + 8 x_10 <= 29
 C_3: 8 x_1 + 4 x_2 + 6 x_3 + 9 x_4 + 6 x_5 + 9 x_6 + 7 x_7 + 3 x_8 + 3 x_9
   + 5 x_10 <= 30
 C_4: 3 x_1 + 4 x_2 + 10 x_3 + 6 x_4 + 9 x_5 + 4 x_6 + 3 x_7 + 10 x_8
   + 9 x_9 + 2 x_10 <= 30
 C_5: 10 x_1 + 8 x_2 + 2 x_3 + 2 x_4 + 10 x_5 + 8 x_6 + 8 x_7 + 4 x_8
   + 7 x_9 + 6 x_10 <= 32
Bounds
Binaries
 x_1 x_2 x_3 x_4 x_5 x_6 x_7 x_8 x_9 x_10
End
